solution status: optimal solution found
objective value:                                    0
X#1#2#7                                             1 	(obj:0)
X#1#3#12                                            1 	(obj:0)
X#1#4#18                                            1 	(obj:0)
X#1#5#3                                             1 	(obj:0)
X#1#6#5                                             1 	(obj:0)
X#1#7#10                                            1 	(obj:0)
X#1#8#16                                            1 	(obj:0)
X#1#9#1                                             1 	(obj:0)
X#1#10#14                                           1 	(obj:0)
X#2#1#8                                             1 	(obj:0)
X#2#3#6                                             1 	(obj:0)
X#2#4#13                                            1 	(obj:0)
X#2#5#12                                            1 	(obj:0)
X#2#6#1                                             1 	(obj:0)
X#2#7#15                                            1 	(obj:0)
X#2#8#9                                             1 	(obj:0)
X#2#9#18                                            1 	(obj:0)
X#2#10#3                                            1 	(obj:0)
X#3#1#11                                            1 	(obj:0)
X#3#2#5                                             1 	(obj:0)
X#3#4#4                                             1 	(obj:0)
X#3#5#9                                             1 	(obj:0)
X#3#6#14                                            1 	(obj:0)
X#3#7#8                                             1 	(obj:0)
X#3#8#1                                             1 	(obj:0)
X#3#9#16                                            1 	(obj:0)
X#3#10#17                                           1 	(obj:0)
X#4#1#17                                            1 	(obj:0)
X#4#2#14                                            1 	(obj:0)
X#4#3#3                                             1 	(obj:0)
X#4#5#2                                             1 	(obj:0)
X#4#6#11                                            1 	(obj:0)
X#4#7#6                                             1 	(obj:0)
X#4#8#7                                             1 	(obj:0)
X#4#9#10                                            1 	(obj:0)
X#4#10#15                                           1 	(obj:0)
X#5#1#4                                             1 	(obj:0)
X#5#2#11                                            1 	(obj:0)
X#5#3#10                                            1 	(obj:0)
X#5#4#1                                             1 	(obj:0)
X#5#6#16                                            1 	(obj:0)
X#5#7#14                                            1 	(obj:0)
X#5#8#17                                            1 	(obj:0)
X#5#9#5                                             1 	(obj:0)
X#5#10#7                                            1 	(obj:0)
X#6#1#6                                             1 	(obj:0)
X#6#2#2                                             1 	(obj:0)
X#6#3#13                                            1 	(obj:0)
X#6#4#12                                            1 	(obj:0)
X#6#5#15                                            1 	(obj:0)
X#6#7#17                                            1 	(obj:0)
X#6#8#4                                             1 	(obj:0)
X#6#9#7                                             1 	(obj:0)
X#6#10#10                                           1 	(obj:0)
X#7#1#9                                             1 	(obj:0)
X#7#2#16                                            1 	(obj:0)
X#7#3#7                                             1 	(obj:0)
X#7#4#5                                             1 	(obj:0)
X#7#5#13                                            1 	(obj:0)
X#7#6#18                                            1 	(obj:0)
X#7#8#12                                            1 	(obj:0)
X#7#9#4                                             1 	(obj:0)
X#7#10#2                                            1 	(obj:0)
X#8#1#15                                            1 	(obj:0)
X#8#2#10                                            1 	(obj:0)
X#8#3#2                                             1 	(obj:0)
X#8#4#8                                             1 	(obj:0)
X#8#5#18                                            1 	(obj:0)
X#8#6#3                                             1 	(obj:0)
X#8#7#11                                            1 	(obj:0)
X#8#9#14                                            1 	(obj:0)
X#8#10#5                                            1 	(obj:0)
X#9#1#2                                             1 	(obj:0)
X#9#2#17                                            1 	(obj:0)
X#9#3#15                                            1 	(obj:0)
X#9#4#9                                             1 	(obj:0)
X#9#5#6                                             1 	(obj:0)
X#9#6#8                                             1 	(obj:0)
X#9#7#3                                             1 	(obj:0)
X#9#8#13                                            1 	(obj:0)
X#9#10#12                                           1 	(obj:0)
X#10#1#13                                           1 	(obj:0)
X#10#2#4                                            1 	(obj:0)
X#10#3#18                                           1 	(obj:0)
X#10#4#16                                           1 	(obj:0)
X#10#5#8                                            1 	(obj:0)
X#10#6#9                                            1 	(obj:0)
X#10#7#1                                            1 	(obj:0)
X#10#8#6                                            1 	(obj:0)
X#10#9#11                                           1 	(obj:0)
Y#1#1                                               1 	(obj:0)
Y#1#3                                               1 	(obj:0)
Y#1#5                                               1 	(obj:0)
Y#1#7                                               1 	(obj:0)
Y#2#1                                               1 	(obj:0)
Y#2#3                                               1 	(obj:0)
Y#2#9                                               1 	(obj:0)
Y#2#13                                              1 	(obj:0)
Y#2#15                                              1 	(obj:0)
Y#3#1                                               1 	(obj:0)
Y#3#5                                               1 	(obj:0)
Y#3#9                                               1 	(obj:0)
Y#3#11                                              1 	(obj:0)
Y#3#17                                              1 	(obj:0)
Y#4#3                                               1 	(obj:0)
Y#4#7                                               1 	(obj:0)
Y#4#11                                              1 	(obj:0)
Y#4#15                                              1 	(obj:0)
Y#4#17                                              1 	(obj:0)
Y#5#1                                               1 	(obj:0)
Y#5#5                                               1 	(obj:0)
Y#5#7                                               1 	(obj:0)
Y#5#11                                              1 	(obj:0)
Y#5#17                                              1 	(obj:0)
Y#6#7                                               1 	(obj:0)
Y#6#13                                              1 	(obj:0)
Y#6#15                                              1 	(obj:0)
Y#6#17                                              1 	(obj:0)
Y#7#5                                               1 	(obj:0)
Y#7#7                                               1 	(obj:0)
Y#7#9                                               1 	(obj:0)
Y#7#13                                              1 	(obj:0)
Y#8#3                                               1 	(obj:0)
Y#8#5                                               1 	(obj:0)
Y#8#11                                              1 	(obj:0)
Y#8#15                                              1 	(obj:0)
Y#9#3                                               1 	(obj:0)
Y#9#9                                               1 	(obj:0)
Y#9#13                                              1 	(obj:0)
Y#9#15                                              1 	(obj:0)
Y#9#17                                              1 	(obj:0)
Y#10#1                                              1 	(obj:0)
Y#10#9                                              1 	(obj:0)
Y#10#11                                             1 	(obj:0)
Y#10#13                                             1 	(obj:0)
